Geographic Exponential Decay
40 209 304 197 222 151 207 160 118 312 51 168 274 10 221 8 292 170 259 314 122 280 161 296 49 96 293 130 295 178 299 1 281 203 73 136 140 260 236 19 32
p edge 320 1253
e 0 274 30.0
e 0 302 1.0
e 1 26 3.0
e 1 203 24.0
e 1 313 9.0
e 1 228 86.0
e 1 303 86.0
e 1 291 70.0
e 1 168 41.0
e 1 182 64.0
e 1 83 57.0
e 1 80 95.0
e 1 298 88.0
e 1 140 39.0
e 1 51 50.0
e 1 122 45.0
e 1 162 74.0
e 1 76 54.0
e 1 8 8.0
e 1 48 21.0
e 1 143 98.0
e 1 20 96.0
e 1 178 47.0
e 1 256 41.0
e 1 225 97.0
e 1 63 4.0
e 1 137 15.0
e 1 272 29.0
e 1 96 92.0
e 2 154 11.0
e 3 158 1.0
e 4 210 1.0
e 5 214 4.0
e 5 48 11.0
e 6 291 7.0
e 6 98 1.0
e 7 154 43.0
e 7 217 19.0
e 7 75 25.0
e 7 8 37.0
e 7 288 42.0
e 7 304 72.0
e 7 22 40.0
e 7 136 19.0
e 7 242 28.0
e 7 44 1.0
e 7 70 49.0
e 7 191 24.0
e 7 17 33.0
e 7 41 34.0
e 8 137 60.0
e 8 293 1.0
e 8 316 27.0
e 8 49 30.0
e 8 86 99.0
e 8 58 28.0
e 8 210 48.0
e 8 311 88.0
e 8 112 54.0
e 8 14 75.0
e 8 43 75.0
e 8 143 80.0
e 8 275 22.0
e 8 155 16.0
e 8 139 86.0
e 8 188 57.0
e 8 163 89.0
e 8 54 3.0
e 8 90 81.0
e 8 250 17.0
e 8 109 57.0
e 8 119 57.0
e 8 274 32.0
e 8 147 11.0
e 8 202 3.0
e 9 168 83.0
e 10 126 40.0
e 10 68 22.0
e 10 74 26.0
e 10 228 59.0
e 10 204 31.0
e 10 273 24.0
e 10 304 42.0
e 10 232 6.0
e 10 71 28.0
e 10 288 50.0
e 10 284 88.0
e 10 69 94.0
e 10 82 33.0
e 10 175 97.0
e 10 136 73.0
e 10 276 51.0
e 10 57 58.0
e 10 176 31.0
e 10 24 73.0
e 10 103 100.0
e 10 31 10.0
e 10 149 20.0
e 10 301 49.0
e 10 258 63.0
e 10 233 12.0
e 10 293 18.0
e 10 187 89.0
e 11 81 5.0
e 12 188 3.0
e 12 209 88.0
e 13 193 1.0
e 14 193 6.0
e 14 125 10.0
e 14 134 4.0
e 15 301 1.0
e 16 299 56.0
e 16 38 17.0
e 16 134 13.0
e 16 285 12.0
e 16 249 19.0
e 16 232 17.0
e 16 211 21.0
e 18 69 3.0
e 19 143 87.0
e 19 311 15.0
e 19 20 82.0
e 19 258 11.0
e 19 130 91.0
e 19 292 45.0
e 19 54 4.0
e 19 163 7.0
e 19 244 89.0
e 19 179 65.0
e 19 306 99.0
e 19 177 85.0
e 19 56 31.0
e 19 259 28.0
e 19 55 31.0
e 19 84 11.0
e 19 72 16.0
e 19 181 15.0
e 19 225 81.0
e 19 180 21.0
e 19 218 38.0
e 19 182 90.0
e 19 312 1.0
e 19 307 22.0
e 19 186 89.0
e 19 111 95.0
e 19 22 8.0
e 21 263 1.0
e 23 303 1.0
e 23 40 6.0
e 23 292 99.0
e 23 224 16.0
e 23 179 20.0
e 23 205 9.0
e 23 148 13.0
e 25 105 2.0
e 25 223 21.0
e 25 225 11.0
e 25 100 4.0
e 27 259 94.0
e 28 64 8.0
e 28 175 3.0
e 28 195 11.0
e 28 245 12.0
e 29 94 1.0
e 30 243 1.0
e 31 135 12.0
e 31 315 4.0
e 31 258 11.0
e 32 64 7.0
e 32 265 46.0
e 32 274 59.0
e 32 30 74.0
e 32 201 52.0
e 32 205 12.0
e 32 1 58.0
e 32 33 54.0
e 32 248 68.0
e 32 290 11.0
e 32 165 49.0
e 32 243 85.0
e 32 155 33.0
e 32 266 14.0
e 32 15 2.0
e 32 13 90.0
e 32 287 86.0
e 32 318 73.0
e 32 253 40.0
e 32 268 87.0
e 32 128 67.0
e 32 254 29.0
e 32 11 14.0
e 32 185 73.0
e 32 286 5.0
e 32 71 22.0
e 32 102 46.0
e 33 15 3.0
e 34 208 2.0
e 35 63 1.0
e 36 131 8.0
e 36 270 1.0
e 36 236 64.0
e 36 127 22.0
e 36 135 7.0
e 36 122 11.0
e 36 243 17.0
e 37 55 1.0
e 39 283 1.0
e 39 97 4.0
e 42 311 1.0
e 45 83 4.0
e 45 289 5.0
e 46 148 3.0
e 47 217 4.0
e 48 169 12.0
e 48 111 4.0
e 49 220 58.0
e 49 286 93.0
e 49 212 38.0
e 49 137 30.0
e 49 150 64.0
e 49 56 91.0
e 49 235 35.0
e 49 218 88.0
e 49 148 79.0
e 49 291 67.0
e 49 55 94.0
e 49 196 9.0
e 49 292 75.0
e 49 20 76.0
e 49 76 24.0
e 49 252 93.0
e 49 229 92.0
e 49 211 74.0
e 49 47 83.0
e 49 17 35.0
e 49 295 31.0
e 49 101 19.0
e 49 204 33.0
e 49 77 32.0
e 49 257 56.0
e 49 176 48.0
e 50 308 3.0
e 50 111 15.0
e 50 177 24.0
e 50 137 15.0
e 50 145 24.0
e 50 105 20.0
e 50 87 23.0
e 51 200 82.0
e 51 235 69.0
e 51 264 40.0
e 51 100 53.0
e 51 12 48.0
e 51 265 51.0
e 51 138 76.0
e 51 222 43.0
e 51 52 52.0
e 51 277 89.0
e 51 278 94.0
e 51 39 52.0
e 51 53 77.0
e 51 236 71.0
e 51 175 25.0
e 51 48 89.0
e 51 209 10.0
e 51 135 22.0
e 51 216 19.0
e 51 29 91.0
e 51 247 77.0
e 51 34 31.0
e 51 279 57.0
e 51 307 41.0
e 51 212 86.0
e 51 54 48.0
e 52 218 16.0
e 55 316 10.0
e 58 89 9.0
e 58 270 5.0
e 58 64 15.0
e 58 10 47.0
e 58 69 3.0
e 58 249 8.0
e 59 316 12.0
e 59 38 8.0
e 59 269 3.0
e 59 86 8.0
e 60 249 1.0
e 61 132 2.0
e 61 204 2.0
e 61 75 1.0
e 61 99 2.0
e 62 229 1.0
e 65 162 5.0
e 65 174 5.0
e 66 317 7.0
e 67 193 1.0
e 70 41 10.0
e 70 280 75.0
e 70 56 1.0
e 73 156 52.0
e 73 36 74.0
e 73 297 94.0
e 73 97 72.0
e 73 27 74.0
e 73 190 13.0
e 73 315 48.0
e 73 275 12.0
e 73 200 44.0
e 73 75 7.0
e 73 85 74.0
e 73 291 74.0
e 73 208 71.0
e 73 278 43.0
e 73 157 32.0
e 73 202 38.0
e 73 203 25.0
e 73 3 59.0
e 73 44 89.0
e 73 120 6.0
e 73 173 24.0
e 73 132 10.0
e 73 29 5.0
e 73 198 15.0
e 73 246 2.0
e 73 70 95.0
e 73 34 67.0
e 75 28 8.0
e 77 176 44.0
e 77 289 20.0
e 77 263 21.0
e 77 18 25.0
e 77 138 20.0
e 77 159 2.0
e 77 212 3.0
e 77 278 29.0
e 77 136 36.0
e 77 305 34.0
e 77 103 45.0
e 77 31 38.0
e 77 191 7.0
e 78 130 82.0
e 78 295 29.0
e 78 105 8.0
e 78 136 36.0
e 79 227 2.0
e 81 25 8.0
e 84 63 3.0
e 88 103 4.0
e 91 39 1.0
e 91 15 1.0
e 92 187 9.0
e 92 246 4.0
e 92 201 1.0
e 92 53 1.0
e 93 213 3.0
e 93 49 24.0
e 95 188 1.0
e 95 111 7.0
e 96 116 50.0
e 96 13 4.0
e 96 44 55.0
e 96 236 57.0
e 96 150 85.0
e 96 23 21.0
e 96 219 70.0
e 96 300 58.0
e 96 226 26.0
e 96 153 63.0
e 96 79 59.0
e 96 301 63.0
e 96 274 89.0
e 96 309 9.0
e 96 296 57.0
e 96 11 23.0
e 96 281 42.0
e 96 277 97.0
e 96 97 40.0
e 96 98 76.0
e 96 36 42.0
e 96 258 84.0
e 96 37 40.0
e 96 198 35.0
e 96 140 80.0
e 96 194 91.0
e 99 197 96.0
e 102 224 5.0
e 104 41 5.0
e 104 235 6.0
e 106 118 94.0
e 106 73 66.0
e 107 167 4.0
e 107 150 4.0
e 108 142 1.0
e 110 241 4.0
e 112 216 4.0
e 113 161 73.0
e 114 240 1.0
e 115 1 68.0
e 115 90 5.0
e 117 114 3.0
e 117 9 11.0
e 117 107 1.0
e 117 28 5.0
e 118 95 86.0
e 118 53 10.0
e 118 316 15.0
e 118 130 37.0
e 118 172 39.0
e 118 138 27.0
e 118 64 80.0
e 118 41 59.0
e 118 217 74.0
e 118 139 15.0
e 118 294 49.0
e 118 253 84.0
e 118 72 7.0
e 118 33 13.0
e 118 4 72.0
e 118 57 99.0
e 118 73 52.0
e 118 65 53.0
e 118 126 82.0
e 118 67 13.0
e 118 290 22.0
e 118 74 55.0
e 118 94 94.0
e 118 58 98.0
e 118 175 67.0
e 118 62 41.0
e 120 257 12.0
e 120 155 10.0
e 120 153 1.0
e 121 61 1.0
e 121 158 1.0
e 122 193 29.0
e 122 257 29.0
e 122 106 53.0
e 122 286 31.0
e 122 46 22.0
e 122 99 51.0
e 122 61 79.0
e 122 147 58.0
e 122 284 43.0
e 122 15 13.0
e 122 47 73.0
e 122 111 6.0
e 122 174 42.0
e 122 40 4.0
e 122 249 43.0
e 122 308 86.0
e 122 208 40.0
e 122 124 58.0
e 122 92 79.0
e 122 109 71.0
e 122 255 55.0
e 122 139 74.0
e 122 178 87.0
e 122 116 29.0
e 122 17 23.0
e 123 236 81.0
e 125 11 1.0
e 128 263 10.0
e 128 184 2.0
e 128 127 5.0
e 129 138 1.0
e 129 51 56.0
e 130 114 85.0
e 130 56 78.0
e 130 95 86.0
e 130 291 24.0
e 130 190 11.0
e 130 168 42.0
e 130 103 49.0
e 130 21 72.0
e 130 80 27.0
e 130 259 82.0
e 130 187 15.0
e 130 260 67.0
e 130 128 33.0
e 130 61 98.0
e 130 12 76.0
e 130 250 24.0
e 130 297 82.0
e 130 70 14.0
e 130 8 41.0
e 130 239 45.0
e 130 113 7.0
e 130 79 49.0
e 130 286 70.0
e 130 202 96.0
e 133 168 97.0
e 135 240 24.0
e 135 201 19.0
e 135 29 12.0
e 135 131 12.0
e 136 59 87.0
e 136 275 88.0
e 136 213 34.0
e 136 79 40.0
e 136 170 21.0
e 136 148 77.0
e 136 93 55.0
e 136 175 68.0
e 136 283 32.0
e 136 193 45.0
e 136 311 82.0
e 136 41 37.0
e 136 99 32.0
e 136 212 70.0
e 136 19 99.0
e 136 8 22.0
e 136 91 30.0
e 136 3 59.0
e 136 120 29.0
e 136 226 47.0
e 136 286 37.0
e 136 137 12.0
e 136 211 45.0
e 139 190 24.0
e 139 147 7.0
e 139 124 8.0
e 139 75 13.0
e 140 135 32.0
e 140 214 23.0
e 140 261 28.0
e 140 74 100.0
e 140 152 60.0
e 140 2 45.0
e 140 262 15.0
e 140 180 29.0
e 140 125 1.0
e 140 258 66.0
e 140 281 73.0
e 140 181 61.0
e 140 301 82.0
e 140 91 58.0
e 140 232 76.0
e 140 23 29.0
e 140 268 77.0
e 140 18 43.0
e 140 238 93.0
e 140 196 75.0
e 140 231 93.0
e 140 60 42.0
e 140 48 78.0
e 140 223 31.0
e 140 133 22.0
e 141 205 5.0
e 141 59 5.0
e 143 57 18.0
e 143 16 11.0
e 143 133 24.0
e 143 17 4.0
e 144 195 1.0
e 146 301 1.0
e 146 7 33.0
e 151 35 58.0
e 151 36 39.0
e 151 269 90.0
e 151 288 75.0
e 151 146 55.0
e 151 159 61.0
e 151 238 67.0
e 151 186 34.0
e 151 29 84.0
e 151 139 58.0
e 151 85 89.0
e 151 224 58.0
e 151 84 9.0
e 151 160 52.0
e 151 289 59.0
e 151 253 31.0
e 151 161 99.0
e 151 270 15.0
e 151 178 30.0
e 151 133 82.0
e 151 41 13.0
e 151 99 71.0
e 151 281 20.0
e 151 107 75.0
e 151 302 56.0
e 151 199 23.0
e 151 173 46.0
e 152 307 4.0
e 154 239 2.0
e 154 36 9.0
e 160 285 76.0
e 160 210 23.0
e 160 270 7.0
e 160 254 49.0
e 160 230 72.0
e 160 255 97.0
e 160 180 94.0
e 160 177 76.0
e 160 126 83.0
e 160 297 88.0
e 160 61 88.0
e 160 148 91.0
e 160 137 92.0
e 160 99 86.0
e 160 53 85.0
e 160 275 27.0
e 160 2 17.0
e 160 228 31.0
e 160 104 76.0
e 160 5 46.0
e 160 92 5.0
e 160 246 6.0
e 160 169 39.0
e 160 303 62.0
e 160 100 2.0
e 160 36 30.0
e 161 245 25.0
e 161 178 92.0
e 161 265 86.0
e 161 275 69.0
e 161 260 84.0
e 161 217 83.0
e 161 189 8.0
e 161 232 62.0
e 161 248 32.0
e 161 145 73.0
e 161 32 69.0
e 161 108 7.0
e 161 47 74.0
e 161 65 13.0
e 161 57 87.0
e 161 274 83.0
e 161 95 80.0
e 161 249 52.0
e 161 257 51.0
e 161 15 4.0
e 161 85 76.0
e 161 182 20.0
e 161 263 52.0
e 161 307 70.0
e 161 220 87.0
e 164 246 5.0
e 165 132 1.0
e 166 120 7.0
e 168 189 36.0
e 168 96 49.0
e 168 166 39.0
e 168 212 66.0
e 168 73 53.0
e 168 215 20.0
e 168 316 86.0
e 168 304 54.0
e 168 45 22.0
e 168 165 76.0
e 168 295 31.0
e 168 269 4.0
e 168 82 50.0
e 168 296 74.0
e 168 37 72.0
e 168 80 5.0
e 168 299 65.0
e 168 3 12.0
e 168 149 79.0
e 168 310 46.0
e 168 181 3.0
e 168 99 47.0
e 168 64 3.0
e 170 234 43.0
e 170 118 74.0
e 170 105 36.0
e 170 87 69.0
e 170 293 2.0
e 170 152 56.0
e 170 189 34.0
e 170 122 34.0
e 170 32 90.0
e 170 34 99.0
e 170 38 55.0
e 170 40 93.0
e 170 268 16.0
e 170 203 40.0
e 170 35 81.0
e 170 177 41.0
e 170 223 34.0
e 170 160 97.0
e 170 202 80.0
e 170 23 50.0
e 170 213 99.0
e 170 281 52.0
e 170 54 85.0
e 170 39 36.0
e 170 106 70.0
e 170 297 23.0
e 171 202 2.0
e 174 45 3.0
e 174 139 9.0
e 178 296 56.0
e 178 99 18.0
e 178 272 77.0
e 178 295 35.0
e 178 11 11.0
e 178 244 27.0
e 178 198 36.0
e 178 66 29.0
e 178 165 57.0
e 178 21 20.0
e 178 74 85.0
e 178 67 80.0
e 178 197 22.0
e 178 280 46.0
e 178 218 81.0
e 178 213 16.0
e 178 199 2.0
e 178 114 57.0
e 178 20 36.0
e 178 48 65.0
e 178 240 38.0
e 178 302 92.0
e 178 217 87.0
e 179 217 11.0
e 179 115 8.0
e 182 42 2.0
e 183 255 19.0
e 183 165 24.0
e 183 80 22.0
e 183 82 23.0
e 183 129 15.0
e 183 70 14.0
e 183 245 1.0
e 192 248 2.0
e 197 35 72.0
e 197 118 70.0
e 197 278 1.0
e 197 290 67.0
e 197 241 33.0
e 197 19 6.0
e 197 41 50.0
e 197 245 44.0
e 197 242 75.0
e 197 4 54.0
e 197 43 31.0
e 197 145 22.0
e 197 36 29.0
e 197 206 22.0
e 197 256 76.0
e 197 194 27.0
e 197 131 43.0
e 197 316 36.0
e 197 67 78.0
e 197 91 59.0
e 197 29 84.0
e 197 232 82.0
e 197 60 86.0
e 197 247 67.0
e 197 10 41.0
e 203 287 96.0
e 203 218 83.0
e 203 96 94.0
e 203 273 29.0
e 203 58 51.0
e 203 190 10.0
e 203 50 31.0
e 203 248 6.0
e 203 162 44.0
e 203 294 35.0
e 203 242 22.0
e 203 81 88.0
e 203 26 7.0
e 203 284 59.0
e 203 83 44.0
e 203 129 97.0
e 203 23 7.0
e 203 282 71.0
e 203 314 14.0
e 203 224 12.0
e 203 38 35.0
e 203 151 51.0
e 203 202 35.0
e 203 293 9.0
e 206 212 1.0
e 207 307 81.0
e 207 106 82.0
e 207 312 73.0
e 207 16 22.0
e 207 191 86.0
e 207 62 81.0
e 207 30 44.0
e 207 192 91.0
e 207 278 100.0
e 207 75 58.0
e 207 218 41.0
e 207 287 22.0
e 207 107 97.0
e 207 185 72.0
e 207 257 74.0
e 207 193 59.0
e 207 172 80.0
e 207 238 2.0
e 207 194 74.0
e 207 147 92.0
e 207 317 55.0
e 207 136 62.0
e 207 222 29.0
e 207 29 76.0
e 207 264 93.0
e 207 245 31.0
e 207 142 84.0
e 209 89 51.0
e 209 238 5.0
e 209 52 11.0
e 209 58 15.0
e 209 283 32.0
e 209 310 57.0
e 209 121 44.0
e 209 119 22.0
e 209 147 72.0
e 209 290 53.0
e 209 82 38.0
e 209 201 2.0
e 209 153 100.0
e 209 270 77.0
e 209 4 89.0
e 209 44 82.0
e 209 296 44.0
e 209 96 63.0
e 209 31 91.0
e 209 216 76.0
e 209 65 38.0
e 209 109 29.0
e 209 194 70.0
e 209 308 32.0
e 209 32 60.0
e 218 300 10.0
e 221 69 55.0
e 221 122 76.0
e 221 224 57.0
e 221 68 35.0
e 221 213 95.0
e 221 305 88.0
e 221 282 73.0
e 221 8 12.0
e 221 138 70.0
e 221 318 3.0
e 221 192 3.0
e 221 50 40.0
e 221 244 28.0
e 221 152 33.0
e 221 205 6.0
e 221 162 18.0
e 221 303 42.0
e 221 198 67.0
e 221 24 53.0
e 221 274 27.0
e 221 77 9.0
e 221 139 13.0
e 221 154 17.0
e 221 40 78.0
e 221 239 56.0
e 221 28 25.0
e 221 186 33.0
e 222 217 53.0
e 222 257 60.0
e 222 105 60.0
e 222 101 4.0
e 222 136 58.0
e 222 18 19.0
e 222 166 51.0
e 222 187 37.0
e 222 96 94.0
e 222 287 31.0
e 222 208 22.0
e 222 95 79.0
e 222 298 66.0
e 222 72 47.0
e 222 19 11.0
e 222 0 63.0
e 222 173 32.0
e 222 239 69.0
e 222 43 36.0
e 222 83 52.0
e 222 189 3.0
e 222 92 53.0
e 222 253 52.0
e 222 135 91.0
e 222 201 52.0
e 223 116 21.0
e 223 93 18.0
e 223 186 24.0
e 223 207 78.0
e 230 203 17.0
e 230 116 3.0
e 230 77 39.0
e 233 266 3.0
e 234 7 22.0
e 234 191 9.0
e 234 34 10.0
e 236 71 38.0
e 236 231 61.0
e 236 275 81.0
e 236 52 72.0
e 236 234 92.0
e 236 209 74.0
e 236 294 15.0
e 236 78 61.0
e 236 189 33.0
e 236 42 31.0
e 236 131 89.0
e 236 187 55.0
e 236 37 29.0
e 236 240 45.0
e 236 152 70.0
e 236 288 72.0
e 236 56 70.0
e 236 85 67.0
e 236 0 51.0
e 236 13 17.0
e 236 257 65.0
e 236 70 35.0
e 236 188 87.0
e 237 83 1.0
e 241 263 19.0
e 241 268 23.0
e 241 157 16.0
e 241 198 10.0
e 241 125 1.0
e 244 72 4.0
e 247 125 12.0
e 247 181 3.0
e 251 189 6.0
e 251 157 1.0
e 252 165 3.0
e 259 200 74.0
e 259 136 80.0
e 259 32 28.0
e 259 181 90.0
e 259 169 91.0
e 259 100 38.0
e 259 282 51.0
e 259 218 10.0
e 259 127 41.0
e 259 224 95.0
e 259 20 87.0
e 259 166 5.0
e 259 139 40.0
e 259 283 68.0
e 259 114 62.0
e 259 245 14.0
e 259 153 89.0
e 259 172 35.0
e 259 69 90.0
e 259 189 73.0
e 259 275 15.0
e 259 190 75.0
e 259 108 11.0
e 259 72 28.0
e 260 80 66.0
e 260 120 98.0
e 260 259 96.0
e 260 39 14.0
e 260 95 46.0
e 260 246 76.0
e 260 24 33.0
e 260 198 54.0
e 260 59 20.0
e 260 238 92.0
e 260 172 99.0
e 260 151 1.0
e 260 157 55.0
e 260 3 46.0
e 260 310 79.0
e 260 11 9.0
e 260 171 40.0
e 260 84 5.0
e 260 42 95.0
e 260 300 58.0
e 260 290 26.0
e 260 317 68.0
e 260 9 52.0
e 260 247 88.0
e 260 10 58.0
e 262 310 3.0
e 267 218 9.0
e 271 5 6.0
e 273 154 6.0
e 273 218 6.0
e 273 238 11.0
e 273 153 7.0
e 273 161 43.0
e 274 164 14.0
e 274 295 51.0
e 274 236 30.0
e 274 304 66.0
e 274 166 41.0
e 274 289 83.0
e 274 303 6.0
e 274 110 24.0
e 274 82 97.0
e 274 316 54.0
e 274 309 69.0
e 274 37 77.0
e 274 6 78.0
e 274 9 4.0
e 274 285 58.0
e 274 59 7.0
e 274 62 21.0
e 274 49 71.0
e 274 65 56.0
e 274 63 98.0
e 274 298 81.0
e 277 56 7.0
e 277 251 5.0
e 279 127 1.0
e 280 248 76.0
e 280 14 34.0
e 280 1 76.0
e 280 159 95.0
e 280 155 83.0
e 280 30 56.0
e 280 25 43.0
e 280 12 81.0
e 280 199 36.0
e 280 304 35.0
e 280 149 2.0
e 280 235 39.0
e 280 267 40.0
e 280 260 55.0
e 280 166 65.0
e 280 17 71.0
e 280 231 75.0
e 280 65 2.0
e 280 20 93.0
e 280 37 6.0
e 280 91 81.0
e 280 226 58.0
e 280 140 6.0
e 280 213 34.0
e 280 92 17.0
e 281 262 39.0
e 281 247 47.0
e 281 265 53.0
e 281 112 82.0
e 281 188 37.0
e 281 90 25.0
e 281 37 97.0
e 281 208 3.0
e 281 71 70.0
e 281 64 77.0
e 281 40 38.0
e 281 258 92.0
e 281 20 63.0
e 281 278 66.0
e 281 261 75.0
e 281 152 31.0
e 281 38 99.0
e 281 169 46.0
e 281 128 15.0
e 281 126 16.0
e 281 18 51.0
e 281 144 38.0
e 281 282 12.0
e 291 115 17.0
e 291 253 5.0
e 292 117 45.0
e 292 148 89.0
e 292 106 26.0
e 292 45 78.0
e 292 174 35.0
e 292 90 23.0
e 292 279 18.0
e 292 98 92.0
e 292 118 20.0
e 292 79 87.0
e 292 107 81.0
e 292 93 20.0
e 292 157 26.0
e 292 84 80.0
e 292 175 91.0
e 292 283 90.0
e 292 53 74.0
e 292 268 20.0
e 292 113 65.0
e 292 303 94.0
e 292 162 45.0
e 292 94 70.0
e 292 20 86.0
e 292 75 85.0
e 293 67 16.0
e 293 58 81.0
e 293 145 76.0
e 293 142 26.0
e 293 165 40.0
e 293 246 43.0
e 293 318 17.0
e 293 157 65.0
e 293 65 5.0
e 293 276 86.0
e 293 277 16.0
e 293 154 100.0
e 293 132 67.0
e 293 44 54.0
e 293 269 92.0
e 293 177 67.0
e 293 217 98.0
e 293 86 4.0
e 293 56 5.0
e 293 81 75.0
e 293 33 88.0
e 293 210 40.0
e 293 146 23.0
e 295 280 45.0
e 295 160 38.0
e 295 157 89.0
e 295 32 77.0
e 295 21 50.0
e 295 62 94.0
e 295 116 13.0
e 295 126 53.0
e 295 121 34.0
e 295 269 85.0
e 295 297 40.0
e 295 156 2.0
e 295 38 89.0
e 295 296 57.0
e 295 228 75.0
e 295 250 86.0
e 295 148 63.0
e 295 143 85.0
e 295 167 59.0
e 295 181 58.0
e 295 212 80.0
e 295 233 90.0
e 296 57 75.0
e 296 51 49.0
e 296 117 43.0
e 296 141 86.0
e 296 298 51.0
e 296 313 14.0
e 296 2 48.0
e 296 128 93.0
e 296 307 89.0
e 296 208 43.0
e 296 278 94.0
e 296 309 1.0
e 296 183 72.0
e 296 239 39.0
e 296 274 92.0
e 296 66 54.0
e 296 283 58.0
e 296 119 16.0
e 296 55 45.0
e 296 73 71.0
e 296 153 66.0
e 296 97 86.0
e 299 23 21.0
e 299 51 65.0
e 299 39 43.0
e 299 294 37.0
e 299 149 24.0
e 299 56 100.0
e 299 138 10.0
e 299 43 94.0
e 299 214 35.0
e 299 142 90.0
e 299 60 19.0
e 299 0 73.0
e 299 262 26.0
e 299 200 40.0
e 299 295 30.0
e 299 40 69.0
e 299 87 72.0
e 299 236 71.0
e 299 190 97.0
e 299 156 8.0
e 299 153 59.0
e 299 115 47.0
e 299 270 48.0
e 299 17 21.0
e 299 69 47.0
e 304 305 69.0
e 304 309 91.0
e 304 40 32.0
e 304 135 60.0
e 304 187 48.0
e 304 279 41.0
e 304 79 3.0
e 304 236 92.0
e 304 9 65.0
e 304 251 56.0
e 304 57 18.0
e 304 232 40.0
e 304 234 44.0
e 304 262 33.0
e 304 172 24.0
e 304 189 89.0
e 304 50 48.0
e 304 293 95.0
e 304 215 90.0
e 304 271 47.0
e 304 192 75.0
e 304 216 55.0
e 312 70 39.0
e 312 159 80.0
e 312 49 47.0
e 312 89 14.0
e 312 310 54.0
e 312 318 29.0
e 312 1 83.0
e 312 147 11.0
e 312 174 65.0
e 312 223 29.0
e 312 167 17.0
e 312 243 24.0
e 312 148 39.0
e 312 141 54.0
e 312 188 87.0
e 312 64 99.0
e 312 154 74.0
e 312 291 44.0
e 312 30 6.0
e 312 12 78.0
e 312 25 1.0
e 312 300 53.0
e 312 95 74.0
e 312 23 51.0
e 312 272 7.0
e 314 85 12.0
e 314 233 42.0
e 314 302 51.0
e 314 268 3.0
e 314 241 34.0
e 314 63 13.0
e 314 30 46.0
e 314 313 67.0
e 314 134 32.0
e 314 285 100.0
e 314 315 69.0
e 314 271 87.0
e 314 68 79.0
e 314 121 1.0
e 314 158 71.0
e 314 53 60.0
e 314 5 14.0
e 314 254 58.0
e 314 144 25.0
e 314 52 56.0
e 314 194 69.0
e 314 3 13.0
e 314 192 96.0
e 314 239 23.0
e 314 234 83.0
e 314 100 7.0
e 315 221 82.0
e 317 301 13.0
e 317 18 4.0
e 317 51 95.0
e 317 186 9.0
e 319 301 1.0
